Route 1: 0 70 14 79 15 90 7 19 73 0
Route 2: 0 38 6 56 3 8 93 0
Route 3: 0 87 88 28 65 99 83 10 24 74 0
Route 4: 0 66 78 37 46 25 77 69 96 34 44 0
Route 5: 0 21 31 12 55 32 2 30 11 89 40 0
Route 6: 0 48 81 49 86 5 62 98 41 17 0
Route 7: 0 22 61 43 75 27 39 52 45 72 23 0
Route 8: 0 58 1 94 35 76 29 92 59 63 71 47 0
Route 9: 0 9 84 13 95 80 57 85 16 36 50 33 18 0
Route 10: 0 42 100 51 67 4 60 82 0
Route 11: 0 91 26 68 20 54 64 0
Route 12: 0 53 97 0
